     Program PWSCF v.6.4.1 starts on  5Jun2021 at  4:57:49

     Waiting for input...
     Reading input from standard input

     Current dimensions of program PWSCF are:
     Max number of different atomic species (ntypx) = 10
     Max number of k-points (npk) =  40000
     Max angular momentum in pseudopotentials (lmaxx) =  3
               file O.pbe-rrkjus.UPF: wavefunction(s)  2S renormalized

     Subspace diagonalization in iterative solution of the eigenvalue problem:
     a serial algorithm will be used

     Found symmetry operation: I + (  0.2500  0.2500  0.2500)
     This is a supercell, fractional translations are disabled

     bravais-lattice index     =            6
     lattice parameter (alat)  =      14.3241  a.u.
     unit-cell volume          =    7421.2481 (a.u.)^3
     number of atoms/cell      =           96
     number of atomic types    =            2
     number of electrons       =       768.00
     number of Kohn-Sham states=          461
     kinetic-energy cutoff     =      35.0000  Ry
     charge density cutoff     =     200.0000  Ry
     convergence threshold     =      1.0E-06
     mixing beta               =       0.4000
     number of iterations used =            8  plain     mixing
     Exchange-correlation      =  SLA  PW   PBE  PBE ( 1  4  3  4 0 0)

     celldm(1)=  14.324124  celldm(2)=   0.000000  celldm(3)=   2.525066
     celldm(4)=   0.000000  celldm(5)=   0.000000  celldm(6)=   0.000000

     crystal axes: (cart. coord. in units of alat)
               a(1) = (   1.000000   0.000000   0.000000 )
               a(2) = (   0.000000   1.000000   0.000000 )
               a(3) = (   0.000000   0.000000   2.525066 )

     reciprocal axes: (cart. coord. in units 2 pi/alat)
               b(1) = (  1.000000  0.000000  0.000000 )
               b(2) = (  0.000000  1.000000  0.000000 )
               b(3) = (  0.000000  0.000000  0.396029 )

     PseudoPot. # 1 for Ti read from file:
     ./pseudo\Ti.pbe-sp-van_ak.UPF
     MD5 check sum: 2e7572f3128e7cf134dafc4105d62c0f
     Pseudo is Ultrasoft, Zval = 12.0
     Generated by new atomic code, or converted to UPF format
     Using radial grid of  851 points,  6 beta functions with:
                l(1) =   0
                l(2) =   0
                l(3) =   1
                l(4) =   1
                l(5) =   2
                l(6) =   2
     Q(r) pseudized with  8 coefficients,  rinner =    1.000   1.000   1.000
                                                       1.000   1.000

     PseudoPot. # 2 for O  read from file:
     ./pseudo\O.pbe-rrkjus.UPF
     MD5 check sum: a4b6f5047f549466a921003d899c5518
     Pseudo is Ultrasoft, Zval =  6.0
     Generated by new atomic code, or converted to UPF format
     Using radial grid of 1269 points,  4 beta functions with:
                l(1) =   0
                l(2) =   0
                l(3) =   1
                l(4) =   1
     Q(r) pseudized with 0 coefficients

     atomic species   valence    mass     pseudopotential
        Ti            12.00    47.86700     Ti( 1.00)
        O              6.00    15.99940     O ( 1.00)

     Starting magnetic structure
     atomic species   magnetization
        Ti           0.200
        O            0.000

      8 Sym. Ops. (no inversion) found

   Cartesian axes

     site n.     atom                  positions (alat units)
         1           Ti  tau(   1) = (   0.0000000   0.0000000   0.0000000  )
         2           Ti  tau(   2) = (   0.2500000   0.2500000   0.6312665  )
         3           Ti  tau(   3) = (   0.0000000   0.2500000   0.3156332  )
         4           Ti  tau(   4) = (   0.2500000   0.0000000   0.9468997  )
         5           Ti  tau(   5) = (   0.0000000   0.0000000   1.2625330  )
         6           Ti  tau(   6) = (   0.2500000   0.2500000   1.8937993  )
         7           Ti  tau(   7) = (   0.0000000   0.2500000   1.5781661  )
         8           Ti  tau(   8) = (   0.2500000   0.0000000   2.2094326  )
         9           Ti  tau(   9) = (   0.0000000   0.5000000   0.0000000  )
        10           Ti  tau(  10) = (   0.2500000   0.7500000   0.6312665  )
        11           Ti  tau(  11) = (   0.5000000   0.2500000   0.3156332  )
        12           Ti  tau(  12) = (   0.7500000   0.0000000   0.9468997  )
        13           Ti  tau(  13) = (   0.2500000   0.5000000   0.9468997  )
        14           Ti  tau(  14) = (   0.0000000   0.7500000   0.3156332  )
        15           Ti  tau(  15) = (   0.7500000   0.2500000   0.6312665  )
        16           Ti  tau(  16) = (   0.5000000   0.0000000   0.0000000  )
        17           Ti  tau(  17) = (   0.0000000   0.5000000   1.2625330  )
        18           Ti  tau(  18) = (   0.2500000   0.7500000   1.8937993  )
        19           Ti  tau(  19) = (   0.5000000   0.2500000   1.5781661  )
        20           Ti  tau(  20) = (   0.7500000   0.0000000   2.2094326  )
        21           Ti  tau(  21) = (   0.2500000   0.5000000   2.2094326  )
        22           Ti  tau(  22) = (   0.0000000   0.7500000   1.5781661  )
        23           Ti  tau(  23) = (   0.7500000   0.2500000   1.8937993  )
        24           Ti  tau(  24) = (   0.5000000   0.0000000   1.2625330  )
        25           Ti  tau(  25) = (   0.5000000   0.5000000   0.0000000  )
        26           Ti  tau(  26) = (   0.7500000   0.7500000   0.6312665  )
        27           Ti  tau(  27) = (   0.5000000   0.7500000   0.3156332  )
        28           Ti  tau(  28) = (   0.7500000   0.5000000   0.9468997  )
        29           Ti  tau(  29) = (   0.5000000   0.5000000   1.2625330  )
        30           Ti  tau(  30) = (   0.7500000   0.7500000   1.8937993  )
        31           Ti  tau(  31) = (   0.5000000   0.7500000   1.5781661  )
        32           Ti  tau(  32) = (   0.7500000   0.5000000   2.2094326  )
        33           O   tau(  33) = (   0.0000000   0.0000000   0.2525066  )
        34           O   tau(  34) = (   0.2500000   0.2500000   0.8837731  )
        35           O   tau(  35) = (   0.0000000   0.2500000   0.5681398  )
        36           O   tau(  36) = (   0.2500000   0.0000000   1.1994063  )
        37           O   tau(  37) = (   0.2500000   0.0000000   0.6943931  )
        38           O   tau(  38) = (   0.0000000   0.2500000   0.0631266  )
        39           O   tau(  39) = (   0.2500000   0.2500000   0.3787599  )
        40           O   tau(  40) = (   0.0000000   0.0000000   2.2725592  )
        41           O   tau(  41) = (   0.0000000   0.0000000   1.5150394  )
        42           O   tau(  42) = (   0.2500000   0.2500000   2.1463059  )
        43           O   tau(  43) = (   0.0000000   0.2500000   1.8306727  )
        44           O   tau(  44) = (   0.2500000   0.0000000   2.4619392  )
        45           O   tau(  45) = (   0.2500000   0.0000000   1.9569260  )
        46           O   tau(  46) = (   0.0000000   0.2500000   1.3256595  )
        47           O   tau(  47) = (   0.2500000   0.2500000   1.6412927  )
        48           O   tau(  48) = (   0.0000000   0.0000000   1.0100264  )
        49           O   tau(  49) = (   0.0000000   0.5000000   0.2525066  )
        50           O   tau(  50) = (   0.2500000   0.7500000   0.8837731  )
        51           O   tau(  51) = (   0.5000000   0.2500000   0.5681398  )
        52           O   tau(  52) = (   0.7500000   0.0000000   1.1994063  )
        53           O   tau(  53) = (   0.2500000   0.5000000   0.6943931  )
        54           O   tau(  54) = (   0.0000000   0.7500000   0.0631266  )
        55           O   tau(  55) = (   0.7500000   0.2500000   0.3787599  )
        56           O   tau(  56) = (   0.5000000   0.0000000   2.2725592  )
        57           O   tau(  57) = (   0.0000000   0.5000000   1.5150394  )
        58           O   tau(  58) = (   0.2500000   0.7500000   2.1463059  )
        59           O   tau(  59) = (   0.5000000   0.2500000   1.8306727  )
        60           O   tau(  60) = (   0.7500000   0.0000000   2.4619392  )
[...]
        82           O   tau(  82) = (   0.7500000   0.7500000   0.8837731  )
        83           O   tau(  83) = (   0.5000000   0.7500000   0.5681398  )
        84           O   tau(  84) = (   0.7500000   0.5000000   1.1994063  )
        85           O   tau(  85) = (   0.7500000   0.5000000   0.6943931  )
        86           O   tau(  86) = (   0.5000000   0.7500000   0.0631266  )
        87           O   tau(  87) = (   0.7500000   0.7500000   0.3787599  )
        88           O   tau(  88) = (   0.5000000   0.5000000   2.2725592  )
        89           O   tau(  89) = (   0.5000000   0.5000000   1.5150394  )
        90           O   tau(  90) = (   0.7500000   0.7500000   2.1463059  )
        91           O   tau(  91) = (   0.5000000   0.7500000   1.8306727  )
        92           O   tau(  92) = (   0.7500000   0.5000000   2.4619392  )
        93           O   tau(  93) = (   0.7500000   0.5000000   1.9569260  )
        94           O   tau(  94) = (   0.5000000   0.7500000   1.3256595  )
        95           O   tau(  95) = (   0.7500000   0.7500000   1.6412927  )
        96           O   tau(  96) = (   0.5000000   0.5000000   1.0100264  )

     number of k points=    18  gaussian smearing, width (Ry)=  0.0100
                       cart. coord. in units 2pi/alat
        k(    1) = (   0.0000000   0.0000000   0.0000000), wk =   0.0156250
        k(    2) = (   0.0000000   0.0000000   0.0990073), wk =   0.0312500
        k(    3) = (   0.0000000   0.0000000  -0.1980146), wk =   0.0156250
        k(    4) = (   0.0000000   0.2500000   0.0000000), wk =   0.0625000
        k(    5) = (   0.0000000   0.2500000   0.0990073), wk =   0.1250000
        k(    6) = (   0.0000000   0.2500000  -0.1980146), wk =   0.0625000
        k(    7) = (   0.0000000  -0.5000000   0.0000000), wk =   0.0312500
        k(    8) = (   0.0000000  -0.5000000   0.0990073), wk =   0.0625000
        k(    9) = (   0.0000000  -0.5000000  -0.1980146), wk =   0.0312500
        k(   10) = (   0.2500000   0.2500000   0.0000000), wk =   0.0625000
        k(   11) = (   0.2500000   0.2500000   0.0990073), wk =   0.1250000
        k(   12) = (   0.2500000   0.2500000  -0.1980146), wk =   0.0625000
        k(   13) = (   0.2500000  -0.5000000   0.0000000), wk =   0.0625000
        k(   14) = (   0.2500000  -0.5000000   0.0990073), wk =   0.1250000
        k(   15) = (   0.2500000  -0.5000000  -0.1980146), wk =   0.0625000
        k(   16) = (  -0.5000000  -0.5000000   0.0000000), wk =   0.0156250
        k(   17) = (  -0.5000000  -0.5000000   0.0990073), wk =   0.0312500
        k(   18) = (  -0.5000000  -0.5000000  -0.1980146), wk =   0.0156250

     Initial potential from superposition of free atoms

     starting charge  735.99850, renormalised to  768.00000
     Starting wfcs are  576 randomized atomic wfcs

     Self-consistent Calculation

     iteration #  1     ecut=    35.00 Ry     beta= 0.40
     Davidson diagonalization with overlap
     ethr =  1.00E-02,  avg # of iterations =  3.0

     total energy              =   -5778.39508531 Ry
     Harris-Foulkes estimate   =   -5788.84460765 Ry
     estimated scf accuracy    <      23.86696970 Ry

     total magnetization       =    -0.00 Bohr mag/cell
     absolute magnetization    =     9.62 Bohr mag/cell

[...]

     total energy              =   -5786.91301969 Ry
     Harris-Foulkes estimate   =   -5786.91302016 Ry
     estimated scf accuracy    <       0.00000177 Ry

[...]

     iteration # 14     ecut=    35.00 Ry     beta= 0.40
     Davidson diagonalization with overlap
     ethr =  2.30E-10,  avg # of iterations =  3.5

     Magnetic moment per site:
     atom:    1    charge:    8.4014    magn:    0.0000    constr:    0.0000
     atom:    2    charge:    8.4014    magn:    0.0000    constr:    0.0000
     atom:    3    charge:    8.4009    magn:    0.0000    constr:    0.0000
     atom:    4    charge:    8.4010    magn:    0.0000    constr:    0.0000
     atom:    5    charge:    8.4014    magn:    0.0000    constr:    0.0000
     atom:    6    charge:    8.4014    magn:    0.0000    constr:    0.0000
     atom:    7    charge:    8.4010    magn:    0.0000    constr:    0.0000
     atom:    8    charge:    8.4009    magn:    0.0000    constr:    0.0000
     atom:    9    charge:    8.4014    magn:    0.0000    constr:    0.0000
     atom:   10    charge:    8.4014    magn:    0.0000    constr:    0.0000
     atom:   11    charge:    8.4010    magn:    0.0000    constr:    0.0000
     atom:   12    charge:    8.4010    magn:    0.0000    constr:    0.0000
     atom:   13    charge:    8.4010    magn:    0.0000    constr:    0.0000
     atom:   14    charge:    8.4009    magn:    0.0000    constr:    0.0000
     atom:   15    charge:    8.4014    magn:    0.0000    constr:    0.0000
     atom:   16    charge:    8.4014    magn:    0.0000    constr:    0.0000
     atom:   17    charge:    8.4015    magn:    0.0000    constr:    0.0000
     atom:   18    charge:    8.4014    magn:    0.0000    constr:    0.0000
     atom:   19    charge:    8.4010    magn:    0.0000    constr:    0.0000
     atom:   20    charge:    8.4009    magn:    0.0000    constr:    0.0000
     atom:   21    charge:    8.4010    magn:    0.0000    constr:    0.0000
     atom:   22    charge:    8.4010    magn:    0.0000    constr:    0.0000
     atom:   23    charge:    8.4014    magn:    0.0000    constr:    0.0000
     atom:   24    charge:    8.4015    magn:    0.0000    constr:    0.0000
     atom:   25    charge:    8.4015    magn:    0.0000    constr:    0.0000
     atom:   26    charge:    8.4014    magn:    0.0000    constr:    0.0000
     atom:   27    charge:    8.4010    magn:    0.0000    constr:    0.0000
     atom:   28    charge:    8.4010    magn:    0.0000    constr:    0.0000
     atom:   29    charge:    8.4015    magn:    0.0000    constr:    0.0000
     atom:   30    charge:    8.4014    magn:    0.0000    constr:    0.0000
     atom:   31    charge:    8.4010    magn:    0.0000    constr:    0.0000
     atom:   32    charge:    8.4010    magn:    0.0000    constr:    0.0000
     atom:   33    charge:    5.3653    magn:   -0.0000    constr:    0.0000
     atom:   34    charge:    5.3653    magn:   -0.0001    constr:    0.0000
     atom:   35    charge:    5.3649    magn:   -0.0000    constr:    0.0000
     atom:   36    charge:    5.3649    magn:   -0.0001    constr:    0.0000
     atom:   37    charge:    5.3649    magn:   -0.0000    constr:    0.0000
     atom:   38    charge:    5.3649    magn:   -0.0000    constr:    0.0000
     atom:   39    charge:    5.3653    magn:   -0.0000    constr:    0.0000
     atom:   40    charge:    5.3653    magn:   -0.0000    constr:    0.0000
     atom:   41    charge:    5.3653    magn:   -0.0000    constr:    0.0000
     atom:   42    charge:    5.3653    magn:   -0.0000    constr:    0.0000
     atom:   43    charge:    5.3649    magn:   -0.0000    constr:    0.0000
     atom:   44    charge:    5.3649    magn:   -0.0000    constr:    0.0000
     atom:   45    charge:    5.3649    magn:   -0.0000    constr:    0.0000
     atom:   46    charge:    5.3649    magn:   -0.0001    constr:    0.0000
     atom:   47    charge:    5.3653    magn:   -0.0001    constr:    0.0000
     atom:   48    charge:    5.3653    magn:   -0.0000    constr:    0.0000
     atom:   49    charge:    5.3653    magn:   -0.0000    constr:    0.0000
     atom:   50    charge:    5.3653    magn:   -0.0001    constr:    0.0000
     atom:   51    charge:    5.3649    magn:   -0.0000    constr:    0.0000
     atom:   52    charge:    5.3649    magn:   -0.0001    constr:    0.0000
     atom:   53    charge:    5.3649    magn:   -0.0000    constr:    0.0000
     atom:   54    charge:    5.3649    magn:   -0.0000    constr:    0.0000
     atom:   55    charge:    5.3653    magn:   -0.0000    constr:    0.0000
     atom:   56    charge:    5.3653    magn:   -0.0000    constr:    0.0000
     atom:   57    charge:    5.3653    magn:   -0.0001    constr:    0.0000
     atom:   58    charge:    5.3653    magn:   -0.0000    constr:    0.0000
     atom:   59    charge:    5.3649    magn:   -0.0000    constr:    0.0000
     atom:   60    charge:    5.3649    magn:   -0.0000    constr:    0.0000
[...]
     atom:   82    charge:    5.3653    magn:   -0.0001    constr:    0.0000
     atom:   83    charge:    5.3649    magn:   -0.0000    constr:    0.0000
     atom:   84    charge:    5.3649    magn:   -0.0000    constr:    0.0000
     atom:   85    charge:    5.3649    magn:   -0.0000    constr:    0.0000
     atom:   86    charge:    5.3649    magn:   -0.0000    constr:    0.0000
     atom:   87    charge:    5.3653    magn:   -0.0000    constr:    0.0000
     atom:   88    charge:    5.3653    magn:   -0.0000    constr:    0.0000
     atom:   89    charge:    5.3653    magn:   -0.0000    constr:    0.0000
     atom:   90    charge:    5.3653    magn:   -0.0000    constr:    0.0000
     atom:   91    charge:    5.3649    magn:   -0.0000    constr:    0.0000
     atom:   92    charge:    5.3649    magn:   -0.0000    constr:    0.0000
     atom:   93    charge:    5.3649    magn:   -0.0000    constr:    0.0000
     atom:   94    charge:    5.3649    magn:   -0.0000    constr:    0.0000
     atom:   95    charge:    5.3653    magn:   -0.0001    constr:    0.0000
     atom:   96    charge:    5.3653    magn:   -0.0000    constr:    0.0000

     End of self-consistent calculation

 ------ SPIN UP ------------

          k = 0.0000 0.0000 0.0000 ( 25997 PWs)   bands (ev):

   -49.0922 -49.0833 -49.0833 -49.0750 -49.0749 -49.0748 -49.0748 -49.0748
   -49.0748 -49.0748 -49.0748 -49.0621 -49.0616 -49.0579 -49.0578 -49.0577
   -49.0577 -49.0573 -49.0573 -49.0572 -49.0572 -49.0446 -49.0445 -49.0445
   -49.0445 -49.0444 -49.0444 -49.0444 -49.0444 -49.0403 -49.0402 -49.0313
   -25.6274 -25.5850 -25.5850 -25.5850 -25.5850 -25.5791 -25.5790 -25.5790
   -25.5790 -25.5667 -25.5666 -25.5548 -25.5547 -25.5546 -25.5546 -25.5544
   -25.5543 -25.5541 -25.5541 -25.4702 -25.4702 -25.4702 -25.4701 -25.4535
   -25.4535 -25.4535 -25.4535 -25.4203 -25.4202 -25.3709 -25.3709 -25.3707
   -25.3707 -25.3703 -25.3702 -25.3701 -25.3701 -25.3536 -25.3536 -25.3433
   -25.3433 -25.3432 -25.3432 -25.3387 -25.3386 -25.3386 -25.3386 -25.3385
   -25.3385 -25.3385 -25.3385 -25.3300 -25.3300 -25.3170 -25.3170 -25.3170
   -25.3169 -25.2975 -25.2975 -25.2975 -25.2974 -25.2666 -25.2666 -25.2574
   -25.2574 -25.2430 -25.2430 -25.2430 -25.2430 -25.2421 -25.2421 -25.2421
   -25.2420 -25.2416 -25.2416 -25.2415 -25.2415 -25.2327 -25.2327 -25.2204
   -25.2203 -25.2203 -25.2203 -25.2199 -25.2198 -25.2197 -25.2197 -25.2197
   -25.2197 -25.2195 -25.2195 -25.2104 -25.2103 -25.2103 -25.2103 -25.2037
   -10.4627 -10.2776 -10.2775  -9.9133  -9.9132  -9.9131  -9.9131  -9.9120
    -9.9120  -9.9119  -9.9119  -9.8336  -9.8335  -9.3992  -9.3991  -9.2659
    -9.2242  -9.2074  -9.2073  -9.1444  -9.1443  -9.1442  -9.1442  -9.1428
    -9.1428  -9.1427  -9.1427  -9.0923  -9.0922  -9.0922  -9.0922  -9.0850
    -9.0850  -9.0849  -9.0849  -9.0407  -9.0405  -8.8629  -8.8629  -8.8628
    -8.8628  -8.8503  -8.8502  -8.8502  -8.8502  -8.8470  -8.8470  -8.8469
    -8.8469  -8.8337  -8.8336  -8.8286  -8.8286  -8.8285  -8.8285  -8.7348
    -8.6805  -8.6804  -8.6804  -8.6803  -8.6789  -8.6788  -8.6787  -8.6787
     2.7879   2.7879   2.7879   2.7879   2.8015   2.8015   2.8015   2.8015
     2.8550   2.8550   2.8555   2.8555   2.9877   3.0031   3.0031   3.0035
     3.0036   3.0176   3.0176   3.0493   3.0493   3.0494   3.0494   3.0510
     3.0511   3.0515   3.0516   3.0813   3.0813   3.1046   3.1046   3.1047
     3.1047   3.1060   3.1060   3.1061   3.1061   3.1151   3.1151   3.1152
     3.1152   3.1168   3.1168   3.1168   3.1168   3.1490   3.1490   3.1494
     3.1496   3.1906   3.1906   3.3603   3.3603   3.3604   3.3604   3.4018
     3.4019   3.4019   3.4019   3.4166   3.4173   3.5763   3.5763   3.5766
     3.5767   3.6057   3.6058   3.6117   3.6117   3.6120   3.6120   3.9147
     3.9147   3.9147   3.9147   3.9485   4.1877   4.1877   4.1877   4.1877
     4.3064   4.3064   4.3072   4.3072   4.5592   4.5592   4.5601   4.5601
     4.5656   4.5656   4.5656   4.5656   4.9749   5.0126   5.0126   5.0130
     5.0130   5.0131   5.0131   5.0136   5.0136   5.0492   5.0492   5.0493
     5.0493   5.1009   5.1010   5.1010   5.1010   5.1248   5.1249   5.1249
     5.1249   5.1857   5.1857   5.1858   5.1858   5.2645   5.2645   5.2646
     5.2646   5.3605   5.3605   5.3605   5.3605   5.3616   5.3616   5.3626
     5.3626   5.4976   5.4977   5.8285   5.8296   5.8586   5.8586   5.8599
     5.8599   6.0172   6.0172   6.0173   6.0173   6.0882   6.0882   6.1053
     6.1053   6.1358   6.1358   6.1358   6.1358   6.2562   6.2562   6.2563
     6.2563   6.2978   6.2979   6.2980   6.2980   6.3540   6.3540   6.3541
     6.3541   6.4109   6.5537   6.5537   6.5537   6.5537   6.5628   6.5628
     6.5691   6.5691   6.5692   6.5692   6.5709   6.5710   6.5710   6.5710
     6.6514   6.6515   6.6519   6.6521   6.7615   6.7615   6.9412   6.9413
     6.9419   6.9421   7.0313   7.0313   7.0314   7.0314   7.1575   7.1575
     9.4061   9.5082   9.5083   9.7632   9.7636  10.0301  10.0302  10.1435
    10.4374  10.4375  10.4375  10.4375  10.5061  10.5061  10.5062  10.5062
    10.6250  10.6250  10.6250  10.6250  10.6520  10.6520  10.6523  10.6523
    10.6568  10.6568  10.6568  10.6568  10.7771  10.7771  10.7771  10.7771
    10.8328  10.8328  10.8328  10.8328  10.8602  10.8602  10.8602  10.8602
    10.8954  10.8954  10.8954  10.8954  10.9026  10.9026  10.9027  10.9028
    10.9636  10.9636  10.9636  10.9636  11.0164  11.0164  11.0166  11.0166
    11.1162  11.1162  11.2307  11.2307  11.2307  11.2307  11.5095  11.5095
    11.6014  11.6014  11.6175  11.6175  11.6175  11.6175  11.7217  11.7218
    11.7218  11.7218  11.8912  11.8913  11.8917

[...]

          k =-0.5000-0.5000 0.0000 ( 25848 PWs)   bands (ev):

[...]

 ------ SPIN DOWN ----------

[...]

          k = 0.2500-0.5000-0.1980 ( 25904 PWs)   bands (ev):

[...]

          k =-0.5000-0.5000-0.1980 ( 25864 PWs)   bands (ev):

   -49.0795 -49.0795 -49.0795 -49.0795 -49.0794 -49.0794 -49.0794 -49.0793
   -49.0679 -49.0679 -49.0679 -49.0678 -49.0678 -49.0678 -49.0678 -49.0677
   -49.0515 -49.0514 -49.0514 -49.0514 -49.0513 -49.0513 -49.0513 -49.0512
   -49.0398 -49.0397 -49.0397 -49.0397 -49.0397 -49.0397 -49.0396 -49.0396
   -25.6013 -25.6012 -25.6012 -25.6012 -25.6012 -25.6012 -25.6012 -25.6011
   -25.5350 -25.5350 -25.5350 -25.5350 -25.5349 -25.5349 -25.5349 -25.5349
   -25.4709 -25.4709 -25.4709 -25.4709 -25.4708 -25.4708 -25.4708 -25.4708
   -25.4351 -25.4351 -25.4351 -25.4351 -25.4351 -25.4351 -25.4351 -25.4351
   -25.3614 -25.3614 -25.3614 -25.3614 -25.3614 -25.3614 -25.3614 -25.3614
   -25.3598 -25.3597 -25.3597 -25.3597 -25.3597 -25.3597 -25.3597 -25.3597
   -25.3197 -25.3197 -25.3196 -25.3196 -25.3196 -25.3196 -25.3196 -25.3196
   -25.3040 -25.3040 -25.3039 -25.3039 -25.3039 -25.3039 -25.3039 -25.3039
   -25.2497 -25.2497 -25.2497 -25.2496 -25.2496 -25.2496 -25.2496 -25.2496
   -25.2339 -25.2339 -25.2339 -25.2339 -25.2339 -25.2339 -25.2339 -25.2339
   -25.2263 -25.2263 -25.2263 -25.2263 -25.2263 -25.2263 -25.2263 -25.2263
   -25.1963 -25.1962 -25.1962 -25.1962 -25.1962 -25.1962 -25.1962 -25.1961
    -9.9263  -9.9263  -9.9263  -9.9263  -9.9262  -9.9262  -9.9262  -9.9262
    -9.6729  -9.6729  -9.6729  -9.6728  -9.6728  -9.6728  -9.6728  -9.6728
    -9.3250  -9.3250  -9.3250  -9.3250  -9.3249  -9.3249  -9.3249  -9.3249
    -9.0912  -9.0912  -9.0912  -9.0912  -9.0911  -9.0911  -9.0911  -9.0911
    -9.0049  -9.0049  -9.0049  -9.0049  -9.0049  -9.0049  -9.0049  -9.0048
    -8.9285  -8.9285  -8.9285  -8.9285  -8.9285  -8.9284  -8.9284  -8.9284
    -8.7901  -8.7901  -8.7901  -8.7901  -8.7901  -8.7901  -8.7901  -8.7901
    -8.6692  -8.6692  -8.6692  -8.6691  -8.6691  -8.6691  -8.6691  -8.6690
     2.4768   2.4768   2.4768   2.4768   2.4768   2.4769   2.4769   2.4769
     2.4976   2.4976   2.4976   2.4976   2.4977   2.4977   2.4977   2.4977
     2.6055   2.6055   2.6055   2.6055   2.6056   2.6056   2.6056   2.6056
     2.7230   2.7230   2.7230   2.7230   2.7231   2.7231   2.7231   2.7231
     3.1129   3.1129   3.1129   3.1129   3.1129   3.1129   3.1129   3.1130
     3.6475   3.6475   3.6475   3.6475   3.6475   3.6475   3.6475   3.6476
     3.7312   3.7312   3.7313   3.7313   3.7313   3.7313   3.7313   3.7313
     3.9744   3.9744   3.9744   3.9744   3.9745   3.9745   3.9745   3.9745
     4.1535   4.1535   4.1535   4.1535   4.1536   4.1536   4.1536   4.1536
     4.3120   4.3121   4.3121   4.3121   4.3121   4.3121   4.3121   4.3122
     4.6987   4.6987   4.6987   4.6987   4.6987   4.6987   4.6987   4.6987
     4.9675   4.9675   4.9675   4.9676   4.9676   4.9676   4.9676   4.9677
     4.9899   4.9899   4.9899   4.9900   4.9900   4.9900   4.9900   4.9901
     5.0676   5.0676   5.0676   5.0676   5.0677   5.0677   5.0677   5.0677
     5.2054   5.2054   5.2054   5.2054   5.2055   5.2055   5.2055   5.2055
     5.3411   5.3411   5.3411   5.3412   5.3412   5.3412   5.3412   5.3413
     5.4345   5.4345   5.4345   5.4345   5.4346   5.4346   5.4346   5.4346
     5.8757   5.8757   5.8757   5.8757   5.8758   5.8758   5.8758   5.8758
     6.0130   6.0130   6.0130   6.0130   6.0131   6.0131   6.0131   6.0132
     6.2638   6.2638   6.2638   6.2638   6.2638   6.2638   6.2638   6.2639
     6.3855   6.3855   6.3855   6.3855   6.3855   6.3855   6.3855   6.3855
     6.6641   6.6641   6.6641   6.6641   6.6641   6.6641   6.6641   6.6642
     6.8296   6.8297   6.8297   6.8297   6.8297   6.8297   6.8297   6.8297
     6.8952   6.8953   6.8953   6.8953   6.8953   6.8954   6.8954   6.8954
    10.2423  10.2423  10.2423  10.2423  10.2423  10.2423  10.2423  10.2423
    10.3359  10.3359  10.3359  10.3360  10.3360  10.3360  10.3360  10.3360
    10.4774  10.4774  10.4774  10.4774  10.4775  10.4775  10.4775  10.4775
    10.5434  10.5434  10.5434  10.5434  10.5434  10.5435  10.5435  10.5435
    10.7060  10.7061  10.7061  10.7061  10.7061  10.7061  10.7061  10.7061
    10.7635  10.7635  10.7635  10.7635  10.7635  10.7635  10.7636  10.7636
    10.9569  10.9569  10.9569  10.9569  10.9569  10.9569  10.9570  10.9570
    11.0939  11.0939  11.0939  11.0939  11.0940  11.0940  11.0940  11.0940
    11.1800  11.1800  11.1800  11.1800  11.1801  11.1801  11.1801  11.1801
    11.3290  11.3291  11.3291  11.3291  11.3291

     the Fermi energy is     8.3529 ev

!    total energy              =   -5786.91302010 Ry
     Harris-Foulkes estimate   =   -5786.91302008 Ry
     estimated scf accuracy    <       0.00000014 Ry

     The total energy is the sum of the following terms:

     one-electron contribution =   -2683.42761782 Ry
     hartree contribution      =    1666.52127932 Ry
     xc contribution           =    -915.73039721 Ry
     ewald contribution        =   -3854.27628439 Ry
     smearing contrib. (-TS)   =      -0.00000000 Ry

     total magnetization       =    -0.00 Bohr mag/cell
     absolute magnetization    =     0.01 Bohr mag/cell

     convergence has been achieved in  14 iterations

     Writing output data file espresso.save\

     General routines

     Parallel routines

   This run was terminated on:  17:26:52   5Jun2021

   JOB DONE.