     Program PWSCF v.6.4.1 starts on  4Jun2021 at  2:58:34

     Waiting for input...
     Reading input from standard input

     Current dimensions of program PWSCF are:
     Max number of different atomic species (ntypx) = 10
     Max number of k-points (npk) =  40000
     Max angular momentum in pseudopotentials (lmaxx) =  3
               file O.pbe-rrkjus.UPF: wavefunction(s)  2S renormalized

     Subspace diagonalization in iterative solution of the eigenvalue problem:
     a serial algorithm will be used

     Found symmetry operation: I + (  0.2500  0.2500  0.2500)
     This is a supercell, fractional translations are disabled

     bravais-lattice index     =            6
     lattice parameter (alat)  =      14.3241  a.u.
     unit-cell volume          =    7421.2481 (a.u.)^3
     number of atoms/cell      =           96
     number of atomic types    =            2
     number of electrons       =       768.00
     number of Kohn-Sham states=          461
     kinetic-energy cutoff     =      35.0000  Ry
     charge density cutoff     =     200.0000  Ry
     convergence threshold     =      1.0E-06
     mixing beta               =       0.4000
     number of iterations used =            8  plain     mixing
     Exchange-correlation      =  SLA  PW   PBE  PBE ( 1  4  3  4 0 0)

     celldm(1)=  14.324124  celldm(2)=   0.000000  celldm(3)=   2.525066
     celldm(4)=   0.000000  celldm(5)=   0.000000  celldm(6)=   0.000000

     crystal axes: (cart. coord. in units of alat)
               a(1) = (   1.000000   0.000000   0.000000 )
               a(2) = (   0.000000   1.000000   0.000000 )
               a(3) = (   0.000000   0.000000   2.525066 )

     reciprocal axes: (cart. coord. in units 2 pi/alat)
               b(1) = (  1.000000  0.000000  0.000000 )
               b(2) = (  0.000000  1.000000  0.000000 )
               b(3) = (  0.000000  0.000000  0.396029 )

     PseudoPot. # 1 for Ti read from file:
     ./pseudo\Ti.pbe-sp-van_ak.UPF
     MD5 check sum: 2e7572f3128e7cf134dafc4105d62c0f
     Pseudo is Ultrasoft, Zval = 12.0
     Generated by new atomic code, or converted to UPF format
     Using radial grid of  851 points,  6 beta functions with:
                l(1) =   0
                l(2) =   0
                l(3) =   1
                l(4) =   1
                l(5) =   2
                l(6) =   2
     Q(r) pseudized with  8 coefficients,  rinner =    1.000   1.000   1.000
                                                       1.000   1.000

     PseudoPot. # 2 for O  read from file:
     ./pseudo\O.pbe-rrkjus.UPF
     MD5 check sum: a4b6f5047f549466a921003d899c5518
     Pseudo is Ultrasoft, Zval =  6.0
     Generated by new atomic code, or converted to UPF format
     Using radial grid of 1269 points,  4 beta functions with:
                l(1) =   0
                l(2) =   0
                l(3) =   1
                l(4) =   1
     Q(r) pseudized with 0 coefficients

     atomic species   valence    mass     pseudopotential
        Ti            12.00    47.86700     Ti( 1.00)
        O              6.00    15.99940     O ( 1.00)

     Starting magnetic structure
     atomic species   magnetization
        Ti           0.200
        O            0.000

      8 Sym. Ops. (no inversion) found

   Cartesian axes

     site n.     atom                  positions (alat units)
         1           Ti  tau(   1) = (   0.0000000   0.0000000   0.0000000  )
         2           Ti  tau(   2) = (   0.2500000   0.2500000   0.6312665  )
         3           Ti  tau(   3) = (   0.0000000   0.2500000   0.3156332  )
         4           Ti  tau(   4) = (   0.2500000   0.0000000   0.9468997  )
         5           Ti  tau(   5) = (   0.0000000   0.0000000   1.2625330  )
         6           Ti  tau(   6) = (   0.2500000   0.2500000   1.8937993  )
         7           Ti  tau(   7) = (   0.0000000   0.2500000   1.5781661  )
         8           Ti  tau(   8) = (   0.2500000   0.0000000   2.2094326  )
         9           Ti  tau(   9) = (   0.0000000   0.5000000   0.0000000  )
        10           Ti  tau(  10) = (   0.2500000   0.7500000   0.6312665  )
        11           Ti  tau(  11) = (   0.5000000   0.2500000   0.3156332  )
        12           Ti  tau(  12) = (   0.7500000   0.0000000   0.9468997  )
        13           Ti  tau(  13) = (   0.2500000   0.5000000   0.9468997  )
        14           Ti  tau(  14) = (   0.0000000   0.7500000   0.3156332  )
        15           Ti  tau(  15) = (   0.7500000   0.2500000   0.6312665  )
        16           Ti  tau(  16) = (   0.5000000   0.0000000   0.0000000  )
        17           Ti  tau(  17) = (   0.0000000   0.5000000   1.2625330  )
        18           Ti  tau(  18) = (   0.2500000   0.7500000   1.8937993  )
        19           Ti  tau(  19) = (   0.5000000   0.2500000   1.5781661  )
        20           Ti  tau(  20) = (   0.7500000   0.0000000   2.2094326  )
        21           Ti  tau(  21) = (   0.2500000   0.5000000   2.2094326  )
        22           Ti  tau(  22) = (   0.0000000   0.7500000   1.5781661  )
        23           Ti  tau(  23) = (   0.7500000   0.2500000   1.8937993  )
        24           Ti  tau(  24) = (   0.5000000   0.0000000   1.2625330  )
        25           Ti  tau(  25) = (   0.5000000   0.5000000   0.0000000  )
        26           Ti  tau(  26) = (   0.7500000   0.7500000   0.6312665  )
        27           Ti  tau(  27) = (   0.5000000   0.7500000   0.3156332  )
        28           Ti  tau(  28) = (   0.7500000   0.5000000   0.9468997  )
        29           Ti  tau(  29) = (   0.5000000   0.5000000   1.2625330  )
        30           Ti  tau(  30) = (   0.7500000   0.7500000   1.8937993  )
        31           Ti  tau(  31) = (   0.5000000   0.7500000   1.5781661  )
        32           Ti  tau(  32) = (   0.7500000   0.5000000   2.2094326  )
        33           O   tau(  33) = (   0.0000000   0.0000000   0.2525066  )
        34           O   tau(  34) = (   0.2500000   0.2500000   0.8837731  )
        35           O   tau(  35) = (   0.0000000   0.2500000   0.5681398  )
        36           O   tau(  36) = (   0.2500000   0.0000000   1.1994063  )
        37           O   tau(  37) = (   0.2500000   0.0000000   0.6943931  )
        38           O   tau(  38) = (   0.0000000   0.2500000   0.0631266  )
        39           O   tau(  39) = (   0.2500000   0.2500000   0.3787599  )
        40           O   tau(  40) = (   0.0000000   0.0000000   2.2725592  )
        41           O   tau(  41) = (   0.0000000   0.0000000   1.5150394  )
        42           O   tau(  42) = (   0.2500000   0.2500000   2.1463059  )
        43           O   tau(  43) = (   0.0000000   0.2500000   1.8306727  )
        44           O   tau(  44) = (   0.2500000   0.0000000   2.4619392  )
        45           O   tau(  45) = (   0.2500000   0.0000000   1.9569260  )
        46           O   tau(  46) = (   0.0000000   0.2500000   1.3256595  )
        47           O   tau(  47) = (   0.2500000   0.2500000   1.6412927  )
        48           O   tau(  48) = (   0.0000000   0.0000000   1.0100264  )
        49           O   tau(  49) = (   0.0000000   0.5000000   0.2525066  )
        50           O   tau(  50) = (   0.2500000   0.7500000   0.8837731  )
        51           O   tau(  51) = (   0.5000000   0.2500000   0.5681398  )
        52           O   tau(  52) = (   0.7500000   0.0000000   1.1994063  )
        53           O   tau(  53) = (   0.2500000   0.5000000   0.6943931  )
        54           O   tau(  54) = (   0.0000000   0.7500000   0.0631266  )
        55           O   tau(  55) = (   0.7500000   0.2500000   0.3787599  )
        56           O   tau(  56) = (   0.5000000   0.0000000   2.2725592  )
        57           O   tau(  57) = (   0.0000000   0.5000000   1.5150394  )
        58           O   tau(  58) = (   0.2500000   0.7500000   2.1463059  )
        59           O   tau(  59) = (   0.5000000   0.2500000   1.8306727  )
        60           O   tau(  60) = (   0.7500000   0.0000000   2.4619392  )
[...]
        82           O   tau(  82) = (   0.7500000   0.7500000   0.8837731  )
        83           O   tau(  83) = (   0.5000000   0.7500000   0.5681398  )
        84           O   tau(  84) = (   0.7500000   0.5000000   1.1994063  )
        85           O   tau(  85) = (   0.7500000   0.5000000   0.6943931  )
        86           O   tau(  86) = (   0.5000000   0.7500000   0.0631266  )
        87           O   tau(  87) = (   0.7500000   0.7500000   0.3787599  )
        88           O   tau(  88) = (   0.5000000   0.5000000   2.2725592  )
        89           O   tau(  89) = (   0.5000000   0.5000000   1.5150394  )
        90           O   tau(  90) = (   0.7500000   0.7500000   2.1463059  )
        91           O   tau(  91) = (   0.5000000   0.7500000   1.8306727  )
        92           O   tau(  92) = (   0.7500000   0.5000000   2.4619392  )
        93           O   tau(  93) = (   0.7500000   0.5000000   1.9569260  )
        94           O   tau(  94) = (   0.5000000   0.7500000   1.3256595  )
        95           O   tau(  95) = (   0.7500000   0.7500000   1.6412927  )
        96           O   tau(  96) = (   0.5000000   0.5000000   1.0100264  )

     number of k points=     1  gaussian smearing, width (Ry)=  0.0100
                       cart. coord. in units 2pi/alat
        k(    1) = (   0.0000000   0.0000000   0.0000000), wk =   1.0000000

     Initial potential from superposition of free atoms

     starting charge  735.99850, renormalised to  768.00000
     Starting wfcs are  576 randomized atomic wfcs

     Self-consistent Calculation

     iteration #  1     ecut=    35.00 Ry     beta= 0.40
     Davidson diagonalization with overlap
     ethr =  1.00E-02,  avg # of iterations =  3.0

     total energy              =   -5778.67855104 Ry
     Harris-Foulkes estimate   =   -5788.96045634 Ry
     estimated scf accuracy    <      23.56329109 Ry

     total magnetization       =     0.00 Bohr mag/cell
     absolute magnetization    =     9.63 Bohr mag/cell

[...]

     total energy              =   -5787.06101226 Ry
     Harris-Foulkes estimate   =   -5787.06101265 Ry
     estimated scf accuracy    <       0.00000261 Ry

[...]

     iteration # 14     ecut=    35.00 Ry     beta= 0.40
     Davidson diagonalization with overlap
     ethr =  3.39E-10,  avg # of iterations =  3.0

     Magnetic moment per site:
     atom:    1    charge:    8.4037    magn:    0.0001    constr:    0.0000
     atom:    2    charge:    8.4037    magn:    0.0001    constr:    0.0000
     atom:    3    charge:    8.4033    magn:    0.0001    constr:    0.0000
     atom:    4    charge:    8.4032    magn:    0.0001    constr:    0.0000
     atom:    5    charge:    8.4037    magn:    0.0001    constr:    0.0000
     atom:    6    charge:    8.4037    magn:    0.0001    constr:    0.0000
     atom:    7    charge:    8.4032    magn:    0.0001    constr:    0.0000
     atom:    8    charge:    8.4033    magn:    0.0001    constr:    0.0000
     atom:    9    charge:    8.4037    magn:    0.0001    constr:    0.0000
     atom:   10    charge:    8.4037    magn:    0.0001    constr:    0.0000
     atom:   11    charge:    8.4033    magn:    0.0001    constr:    0.0000
     atom:   12    charge:    8.4032    magn:    0.0001    constr:    0.0000
     atom:   13    charge:    8.4032    magn:    0.0001    constr:    0.0000
     atom:   14    charge:    8.4033    magn:    0.0001    constr:    0.0000
     atom:   15    charge:    8.4037    magn:    0.0001    constr:    0.0000
     atom:   16    charge:    8.4037    magn:    0.0001    constr:    0.0000
     atom:   17    charge:    8.4037    magn:    0.0001    constr:    0.0000
     atom:   18    charge:    8.4037    magn:    0.0001    constr:    0.0000
     atom:   19    charge:    8.4032    magn:    0.0001    constr:    0.0000
     atom:   20    charge:    8.4033    magn:    0.0001    constr:    0.0000
     atom:   21    charge:    8.4033    magn:    0.0001    constr:    0.0000
     atom:   22    charge:    8.4032    magn:    0.0001    constr:    0.0000
     atom:   23    charge:    8.4037    magn:    0.0001    constr:    0.0000
     atom:   24    charge:    8.4037    magn:    0.0001    constr:    0.0000
     atom:   25    charge:    8.4038    magn:    0.0001    constr:    0.0000
     atom:   26    charge:    8.4037    magn:    0.0001    constr:    0.0000
     atom:   27    charge:    8.4033    magn:    0.0001    constr:    0.0000
     atom:   28    charge:    8.4032    magn:    0.0001    constr:    0.0000
     atom:   29    charge:    8.4037    magn:    0.0001    constr:    0.0000
     atom:   30    charge:    8.4037    magn:    0.0001    constr:    0.0000
     atom:   31    charge:    8.4032    magn:    0.0001    constr:    0.0000
     atom:   32    charge:    8.4033    magn:    0.0001    constr:    0.0000
     atom:   33    charge:    5.3636    magn:   -0.0001    constr:    0.0000
     atom:   34    charge:    5.3636    magn:   -0.0001    constr:    0.0000
     atom:   35    charge:    5.3632    magn:   -0.0001    constr:    0.0000
     atom:   36    charge:    5.3632    magn:   -0.0001    constr:    0.0000
     atom:   37    charge:    5.3632    magn:   -0.0001    constr:    0.0000
     atom:   38    charge:    5.3632    magn:   -0.0001    constr:    0.0000
     atom:   39    charge:    5.3636    magn:   -0.0001    constr:    0.0000
     atom:   40    charge:    5.3636    magn:   -0.0001    constr:    0.0000
     atom:   41    charge:    5.3636    magn:   -0.0001    constr:    0.0000
     atom:   42    charge:    5.3636    magn:   -0.0001    constr:    0.0000
     atom:   43    charge:    5.3632    magn:   -0.0001    constr:    0.0000
     atom:   44    charge:    5.3632    magn:   -0.0001    constr:    0.0000
     atom:   45    charge:    5.3632    magn:   -0.0001    constr:    0.0000
     atom:   46    charge:    5.3632    magn:   -0.0001    constr:    0.0000
     atom:   47    charge:    5.3636    magn:   -0.0001    constr:    0.0000
     atom:   48    charge:    5.3636    magn:   -0.0001    constr:    0.0000
     atom:   49    charge:    5.3636    magn:   -0.0001    constr:    0.0000
     atom:   50    charge:    5.3636    magn:   -0.0001    constr:    0.0000
     atom:   51    charge:    5.3632    magn:   -0.0001    constr:    0.0000
     atom:   52    charge:    5.3632    magn:   -0.0001    constr:    0.0000
     atom:   53    charge:    5.3632    magn:   -0.0001    constr:    0.0000
     atom:   54    charge:    5.3632    magn:   -0.0001    constr:    0.0000
     atom:   55    charge:    5.3636    magn:   -0.0001    constr:    0.0000
     atom:   56    charge:    5.3636    magn:   -0.0001    constr:    0.0000
     atom:   57    charge:    5.3636    magn:   -0.0001    constr:    0.0000
     atom:   58    charge:    5.3636    magn:   -0.0001    constr:    0.0000
     atom:   59    charge:    5.3632    magn:   -0.0001    constr:    0.0000
     atom:   60    charge:    5.3632    magn:   -0.0001    constr:    0.0000
[...]
     atom:   82    charge:    5.3636    magn:   -0.0001    constr:    0.0000
     atom:   83    charge:    5.3632    magn:   -0.0001    constr:    0.0000
     atom:   84    charge:    5.3632    magn:   -0.0001    constr:    0.0000
     atom:   85    charge:    5.3632    magn:   -0.0001    constr:    0.0000
     atom:   86    charge:    5.3632    magn:   -0.0001    constr:    0.0000
     atom:   87    charge:    5.3636    magn:   -0.0001    constr:    0.0000
     atom:   88    charge:    5.3636    magn:   -0.0001    constr:    0.0000
     atom:   89    charge:    5.3636    magn:   -0.0001    constr:    0.0000
     atom:   90    charge:    5.3636    magn:   -0.0001    constr:    0.0000
     atom:   91    charge:    5.3632    magn:   -0.0001    constr:    0.0000
     atom:   92    charge:    5.3632    magn:   -0.0001    constr:    0.0000
     atom:   93    charge:    5.3632    magn:   -0.0001    constr:    0.0000
     atom:   94    charge:    5.3632    magn:   -0.0001    constr:    0.0000
     atom:   95    charge:    5.3636    magn:   -0.0001    constr:    0.0000
     atom:   96    charge:    5.3636    magn:   -0.0001    constr:    0.0000

     End of self-consistent calculation

 ------ SPIN UP ------------

          k = 0.0000 0.0000 0.0000 ( 25997 PWs)   bands (ev):

   -49.0814 -49.0726 -49.0725 -49.0644 -49.0644 -49.0643 -49.0642 -49.0639
   -49.0639 -49.0636 -49.0636 -49.0513 -49.0508 -49.0473 -49.0473 -49.0468
   -49.0467 -49.0467 -49.0465 -49.0465 -49.0459 -49.0340 -49.0340 -49.0338
   -49.0338 -49.0335 -49.0335 -49.0332 -49.0332 -49.0295 -49.0294 -49.0205
   -25.6026 -25.5663 -25.5663 -25.5663 -25.5663 -25.5595 -25.5595 -25.5595
   -25.5595 -25.5418 -25.5417 -25.5406 -25.5404 -25.5403 -25.5403 -25.5400
   -25.5397 -25.5397 -25.5396 -25.4608 -25.4608 -25.4607 -25.4607 -25.4430
   -25.4430 -25.4430 -25.4430 -25.3950 -25.3949 -25.3691 -25.3690 -25.3688
   -25.3688 -25.3683 -25.3682 -25.3680 -25.3680 -25.3514 -25.3514 -25.3411
   -25.3411 -25.3410 -25.3410 -25.3367 -25.3367 -25.3366 -25.3366 -25.3362
   -25.3362 -25.3359 -25.3359 -25.3278 -25.3278 -25.3086 -25.3086 -25.3086
   -25.3086 -25.2900 -25.2900 -25.2899 -25.2899 -25.2552 -25.2552 -25.2410
   -25.2409 -25.2408 -25.2408 -25.2408 -25.2407 -25.2400 -25.2400 -25.2400
   -25.2399 -25.2393 -25.2393 -25.2391 -25.2391 -25.2305 -25.2305 -25.2072
   -25.2069 -25.2069 -25.2069 -25.2068 -25.2064 -25.2063 -25.2063 -25.2022
   -25.2022 -25.2022 -25.2022 -25.1933 -25.1932 -25.1932 -25.1932 -25.1778
   -10.4724 -10.2872 -10.2871  -9.9232  -9.9231  -9.9231  -9.9231  -9.9219
    -9.9219  -9.9218  -9.9217  -9.8434  -9.8433  -9.4093  -9.4093  -9.2779
    -9.2345  -9.2196  -9.2196  -9.1548  -9.1546  -9.1545  -9.1543  -9.1532
    -9.1532  -9.1529  -9.1529  -9.1038  -9.1038  -9.1038  -9.1038  -9.0966
    -9.0966  -9.0966  -9.0966  -9.0536  -9.0535  -8.8748  -8.8748  -8.8748
    -8.8748  -8.8620  -8.8620  -8.8620  -8.8620  -8.8578  -8.8578  -8.8577
    -8.8577  -8.8473  -8.8472  -8.8392  -8.8392  -8.8391  -8.8391  -8.7486
    -8.6916  -8.6914  -8.6914  -8.6911  -8.6900  -8.6900  -8.6896  -8.6896
     2.7765   2.7765   2.7765   2.7765   2.7916   2.7916   2.7916   2.7916
     2.8457   2.8457   2.8462   2.8462   2.9703   2.9970   2.9970   2.9974
     2.9974   3.0160   3.0160   3.0395   3.0396   3.0400   3.0401   3.0477
     3.0477   3.0478   3.0478   3.0797   3.0797   3.1031   3.1031   3.1031
     3.1032   3.1045   3.1045   3.1046   3.1047   3.1054   3.1054   3.1055
     3.1055   3.1067   3.1067   3.1067   3.1067   3.1406   3.1406   3.1410
     3.1411   3.1717   3.1717   3.3482   3.3482   3.3483   3.3483   3.3844
     3.3844   3.3845   3.3845   3.3953   3.3959   3.5744   3.5744   3.5748
     3.5748   3.5834   3.5835   3.6107   3.6107   3.6110   3.6111   3.9092
     3.9092   3.9092   3.9092   3.9256   4.1789   4.1789   4.1789   4.1789
     4.2927   4.2928   4.2935   4.2936   4.5442   4.5442   4.5450   4.5450
     4.5454   4.5454   4.5454   4.5454   4.9505   5.0147   5.0147   5.0151
     5.0151   5.0152   5.0152   5.0157   5.0158   5.0509   5.0510   5.0510
     5.0510   5.0852   5.0852   5.0852   5.0852   5.1259   5.1259   5.1260
     5.1260   5.1875   5.1875   5.1876   5.1876   5.2656   5.2656   5.2657
     5.2657   5.3365   5.3365   5.3365   5.3365   5.3444   5.3445   5.3454
     5.3454   5.4724   5.4725   5.8049   5.8059   5.8346   5.8346   5.8358
     5.8358   5.9999   5.9999   5.9999   6.0000   6.0817   6.0818   6.0852
     6.0852   6.1182   6.1182   6.1182   6.1183   6.2527   6.2527   6.2528
     6.2528   6.2981   6.2981   6.2982   6.2982   6.3469   6.3469   6.3469
     6.3469   6.3860   6.5318   6.5318   6.5318   6.5318   6.5563   6.5563
     6.5617   6.5617   6.5618   6.5618   6.5635   6.5635   6.5636   6.5637
     6.6519   6.6520   6.6524   6.6525   6.7614   6.7614   6.9350   6.9351
     6.9357   6.9359   7.0279   7.0279   7.0280   7.0280   7.1534   7.1534
     9.4083   9.5102   9.5103   9.7650   9.7654  10.0317  10.0318  10.1449
    10.4425  10.4425  10.4425  10.4425  10.5145  10.5145  10.5145  10.5146
    10.6277  10.6277  10.6277  10.6277  10.6586  10.6586  10.6589  10.6589
    10.6627  10.6627  10.6627  10.6627  10.7863  10.7863  10.7863  10.7864
    10.8416  10.8416  10.8416  10.8417  10.8681  10.8681  10.8682  10.8682
    10.8982  10.8982  10.8983  10.8983  10.9110  10.9110  10.9111  10.9111
    10.9711  10.9711  10.9712  10.9712  11.0234  11.0234  11.0236  11.0236
    11.1261  11.1261  11.2397  11.2397  11.2397  11.2397  11.5172  11.5172
    11.6075  11.6075  11.6228  11.6228  11.6228  11.6228  11.7259  11.7259
    11.7259  11.7259  11.8961  11.8962  11.8962

 ------ SPIN DOWN ----------

          k = 0.0000 0.0000 0.0000 ( 25997 PWs)   bands (ev):

   -49.0810 -49.0721 -49.0720 -49.0640 -49.0640 -49.0638 -49.0638 -49.0635
   -49.0635 -49.0632 -49.0632 -49.0509 -49.0503 -49.0469 -49.0469 -49.0464
   -49.0462 -49.0462 -49.0461 -49.0461 -49.0454 -49.0336 -49.0336 -49.0334
   -49.0334 -49.0331 -49.0331 -49.0328 -49.0328 -49.0291 -49.0290 -49.0201
   -25.6022 -25.5659 -25.5659 -25.5659 -25.5659 -25.5591 -25.5591 -25.5591
   -25.5591 -25.5414 -25.5413 -25.5402 -25.5400 -25.5399 -25.5399 -25.5396
   -25.5393 -25.5392 -25.5392 -25.4603 -25.4603 -25.4603 -25.4603 -25.4426
   -25.4426 -25.4426 -25.4426 -25.3947 -25.3945 -25.3686 -25.3685 -25.3683
   -25.3683 -25.3678 -25.3677 -25.3675 -25.3675 -25.3509 -25.3509 -25.3406
   -25.3406 -25.3405 -25.3405 -25.3363 -25.3362 -25.3361 -25.3361 -25.3358
   -25.3358 -25.3355 -25.3355 -25.3274 -25.3274 -25.3082 -25.3082 -25.3082
   -25.3081 -25.2895 -25.2895 -25.2895 -25.2895 -25.2547 -25.2547 -25.2406
   -25.2405 -25.2404 -25.2403 -25.2403 -25.2403 -25.2396 -25.2396 -25.2395
   -25.2395 -25.2389 -25.2389 -25.2386 -25.2386 -25.2300 -25.2300 -25.2067
   -25.2065 -25.2065 -25.2065 -25.2063 -25.2059 -25.2059 -25.2059 -25.2018
   -25.2018 -25.2018 -25.2017 -25.1928 -25.1928 -25.1928 -25.1928 -25.1775
   -10.4725 -10.2874 -10.2873  -9.9233  -9.9233  -9.9233  -9.9232  -9.9220
    -9.9220  -9.9219  -9.9219  -9.8436  -9.8435  -9.4095  -9.4094  -9.2781
    -9.2347  -9.2198  -9.2197  -9.1550  -9.1548  -9.1547  -9.1544  -9.1534
    -9.1534  -9.1530  -9.1530  -9.1040  -9.1040  -9.1040  -9.1040  -9.0968
    -9.0968  -9.0968  -9.0968  -9.0538  -9.0537  -8.8750  -8.8750  -8.8750
    -8.8750  -8.8622  -8.8622  -8.8622  -8.8622  -8.8580  -8.8579  -8.8579
    -8.8579  -8.8475  -8.8474  -8.8394  -8.8394  -8.8393  -8.8393  -8.7488
    -8.6918  -8.6916  -8.6916  -8.6913  -8.6902  -8.6901  -8.6898  -8.6898
     2.7766   2.7766   2.7766   2.7767   2.7917   2.7917   2.7917   2.7917
     2.8458   2.8458   2.8463   2.8463   2.9704   2.9971   2.9971   2.9975
     2.9975   3.0161   3.0161   3.0396   3.0396   3.0401   3.0402   3.0477
     3.0478   3.0478   3.0479   3.0798   3.0798   3.1032   3.1032   3.1032
     3.1033   3.1046   3.1046   3.1047   3.1048   3.1054   3.1055   3.1055
     3.1055   3.1067   3.1067   3.1068   3.1068   3.1407   3.1407   3.1411
     3.1412   3.1718   3.1718   3.3483   3.3483   3.3484   3.3484   3.3845
     3.3845   3.3846   3.3846   3.3954   3.3960   3.5744   3.5745   3.5748
     3.5749   3.5836   3.5836   3.6107   3.6107   3.6111   3.6111   3.9093
     3.9093   3.9093   3.9093   3.9257   4.1790   4.1790   4.1790   4.1790
     4.2928   4.2928   4.2935   4.2936   4.5442   4.5442   4.5450   4.5450
     4.5455   4.5455   4.5455   4.5455   4.9505   5.0146   5.0146   5.0150
     5.0150   5.0151   5.0152   5.0156   5.0157   5.0509   5.0509   5.0510
     5.0510   5.0852   5.0852   5.0852   5.0852   5.1259   5.1259   5.1259
     5.1259   5.1874   5.1875   5.1875   5.1875   5.2655   5.2655   5.2656
     5.2656   5.3365   5.3366   5.3366   5.3366   5.3445   5.3445   5.3454
     5.3454   5.4724   5.4725   5.8049   5.8059   5.8346   5.8346   5.8358
     5.8358   5.9998   5.9998   5.9998   5.9998   6.0817   6.0818   6.0851
     6.0851   6.1182   6.1182   6.1182   6.1182   6.2526   6.2526   6.2526
     6.2527   6.2979   6.2979   6.2979   6.2980   6.3467   6.3467   6.3467
     6.3468   6.3860   6.5317   6.5317   6.5317   6.5317   6.5562   6.5562
     6.5616   6.5616   6.5616   6.5617   6.5634   6.5634   6.5635   6.5635
     6.6517   6.6518   6.6522   6.6523   6.7611   6.7611   6.9348   6.9348
     6.9355   6.9356   7.0276   7.0276   7.0277   7.0277   7.1531   7.1531
     9.4087   9.5107   9.5108   9.7655   9.7659  10.0322  10.0322  10.1454
    10.4430  10.4430  10.4430  10.4430  10.5149  10.5149  10.5150  10.5150
    10.6280  10.6280  10.6281  10.6281  10.6591  10.6591  10.6593  10.6593
    10.6631  10.6631  10.6631  10.6631  10.7867  10.7867  10.7868  10.7868
    10.8420  10.8420  10.8421  10.8421  10.8685  10.8685  10.8685  10.8685
    10.8986  10.8986  10.8987  10.8987  10.9113  10.9113  10.9114  10.9114
    10.9715  10.9715  10.9715  10.9716  11.0238  11.0238  11.0240  11.0240
    11.1265  11.1265  11.2401  11.2401  11.2402  11.2402  11.5175  11.5175
    11.6079  11.6079  11.6230  11.6230  11.6231  11.6231  11.7262  11.7262
    11.7263  11.7263  11.8963  11.8967  11.8967

     the Fermi energy is     8.3237 ev

!    total energy              =   -5787.06101273 Ry
     Harris-Foulkes estimate   =   -5787.06101263 Ry
     estimated scf accuracy    <       0.00000037 Ry

     The total energy is the sum of the following terms:

     one-electron contribution =   -2683.46134787 Ry
     hartree contribution      =    1666.33472343 Ry
     xc contribution           =    -915.65810389 Ry
     ewald contribution        =   -3854.27628439 Ry
     smearing contrib. (-TS)   =      -0.00000000 Ry

     total magnetization       =    -0.00 Bohr mag/cell
     absolute magnetization    =     0.01 Bohr mag/cell

     convergence has been achieved in  14 iterations

     Writing output data file espresso.save\

     General routines

     Parallel routines

   This run was terminated on:   3: 9:45   4Jun2021

   JOB DONE.