     Program PWSCF v.6.5 starts on 31May2021 at 10:24:27

     Waiting for input...
     Reading input from standard input

     Current dimensions of program PWSCF are:
     Max number of different atomic species (ntypx) = 10
     Max number of k-points (npk) =  40000
     Max angular momentum in pseudopotentials (lmaxx) =  3
               file O.pbe-rrkjus.UPF: wavefunction(s)  2S renormalized

     Subspace diagonalization in iterative solution of the eigenvalue problem:
     a serial algorithm will be used

     Found symmetry operation: I + (  0.2500  0.2500  0.2500)
     This is a supercell, fractional translations are disabled

     bravais-lattice index     =            6
     lattice parameter (alat)  =      14.3241  a.u.
     unit-cell volume          =    7421.2481 (a.u.)^3
     number of atoms/cell      =           96
     number of atomic types    =            2
     number of electrons       =       768.00
     number of Kohn-Sham states=          461
     kinetic-energy cutoff     =      35.0000  Ry
     charge density cutoff     =     200.0000  Ry
     convergence threshold     =      1.0E-06
     mixing beta               =       0.4000
     number of iterations used =            8  plain     mixing
     Exchange-correlation=  SLA  PW   PBE  PBE
                           (   1   4   3   4   0   0   0)

     celldm(1)=  14.324124  celldm(2)=   0.000000  celldm(3)=   2.525066
     celldm(4)=   0.000000  celldm(5)=   0.000000  celldm(6)=   0.000000

     crystal axes: (cart. coord. in units of alat)
               a(1) = (   1.000000   0.000000   0.000000 )
               a(2) = (   0.000000   1.000000   0.000000 )
               a(3) = (   0.000000   0.000000   2.525066 )

     reciprocal axes: (cart. coord. in units 2 pi/alat)
               b(1) = (  1.000000  0.000000  0.000000 )
               b(2) = (  0.000000  1.000000  0.000000 )
               b(3) = (  0.000000  0.000000  0.396029 )

     PseudoPot. # 1 for Ti read from file:
     ./pseudo/Ti.pbe-sp-van_ak.UPF
     MD5 check sum: 2e7572f3128e7cf134dafc4105d62c0f
     Pseudo is Ultrasoft, Zval = 12.0
     Generated by new atomic code, or converted to UPF format
     Using radial grid of  851 points,  6 beta functions with:
                l(1) =   0
                l(2) =   0
                l(3) =   1
                l(4) =   1
                l(5) =   2
                l(6) =   2
     Q(r) pseudized with  8 coefficients,  rinner =    1.000   1.000   1.000
                                                       1.000   1.000

     PseudoPot. # 2 for O  read from file:
     ./pseudo/O.pbe-rrkjus.UPF
     MD5 check sum: a4b6f5047f549466a921003d899c5518
     Pseudo is Ultrasoft, Zval =  6.0
     Generated by new atomic code, or converted to UPF format
     Using radial grid of 1269 points,  4 beta functions with:
                l(1) =   0
                l(2) =   0
                l(3) =   1
                l(4) =   1
     Q(r) pseudized with 0 coefficients

     atomic species   valence    mass     pseudopotential
        Ti            12.00    47.86700     Ti( 1.00)
        O              6.00    15.99940     O ( 1.00)

     Starting magnetic structure
     atomic species   magnetization
        Ti           0.200
        O            0.000

      8 Sym. Ops. (no inversion) found

   Cartesian axes

     site n.     atom                  positions (alat units)
         1           Ti  tau(   1) = (   0.0000000   0.0000000   0.0000000  )
         2           Ti  tau(   2) = (   0.2500000   0.2500000   0.6312665  )
         3           Ti  tau(   3) = (   0.0000000   0.2500000   0.3156332  )
         4           Ti  tau(   4) = (   0.2500000   0.0000000   0.9468997  )
         5           Ti  tau(   5) = (   0.0000000   0.0000000   1.2625330  )
         6           Ti  tau(   6) = (   0.2500000   0.2500000   1.8937993  )
         7           Ti  tau(   7) = (   0.0000000   0.2500000   1.5781661  )
         8           Ti  tau(   8) = (   0.2500000   0.0000000   2.2094326  )
         9           Ti  tau(   9) = (   0.0000000   0.5000000   0.0000000  )
        10           Ti  tau(  10) = (   0.2500000   0.7500000   0.6312665  )
        11           Ti  tau(  11) = (   0.5000000   0.2500000   0.3156332  )
        12           Ti  tau(  12) = (   0.7500000   0.0000000   0.9468997  )
        13           Ti  tau(  13) = (   0.2500000   0.5000000   0.9468997  )
        14           Ti  tau(  14) = (   0.0000000   0.7500000   0.3156332  )
        15           Ti  tau(  15) = (   0.7500000   0.2500000   0.6312665  )
        16           Ti  tau(  16) = (   0.5000000   0.0000000   0.0000000  )
        17           Ti  tau(  17) = (   0.0000000   0.5000000   1.2625330  )
        18           Ti  tau(  18) = (   0.2500000   0.7500000   1.8937993  )
        19           Ti  tau(  19) = (   0.5000000   0.2500000   1.5781661  )
        20           Ti  tau(  20) = (   0.7500000   0.0000000   2.2094326  )
        21           Ti  tau(  21) = (   0.2500000   0.5000000   2.2094326  )
        22           Ti  tau(  22) = (   0.0000000   0.7500000   1.5781661  )
        23           Ti  tau(  23) = (   0.7500000   0.2500000   1.8937993  )
        24           Ti  tau(  24) = (   0.5000000   0.0000000   1.2625330  )
        25           Ti  tau(  25) = (   0.5000000   0.5000000   0.0000000  )
        26           Ti  tau(  26) = (   0.7500000   0.7500000   0.6312665  )
        27           Ti  tau(  27) = (   0.5000000   0.7500000   0.3156332  )
        28           Ti  tau(  28) = (   0.7500000   0.5000000   0.9468997  )
        29           Ti  tau(  29) = (   0.5000000   0.5000000   1.2625330  )
        30           Ti  tau(  30) = (   0.7500000   0.7500000   1.8937993  )
        31           Ti  tau(  31) = (   0.5000000   0.7500000   1.5781661  )
        32           Ti  tau(  32) = (   0.7500000   0.5000000   2.2094326  )
        33           O   tau(  33) = (   0.0000000   0.0000000   0.2525066  )
        34           O   tau(  34) = (   0.2500000   0.2500000   0.8837731  )
        35           O   tau(  35) = (   0.0000000   0.2500000   0.5681398  )
        36           O   tau(  36) = (   0.2500000   0.0000000   1.1994063  )
        37           O   tau(  37) = (   0.2500000   0.0000000   0.6943931  )
        38           O   tau(  38) = (   0.0000000   0.2500000   0.0631266  )
        39           O   tau(  39) = (   0.2500000   0.2500000   0.3787599  )
        40           O   tau(  40) = (   0.0000000   0.0000000   2.2725592  )
        41           O   tau(  41) = (   0.0000000   0.0000000   1.5150394  )
        42           O   tau(  42) = (   0.2500000   0.2500000   2.1463059  )
        43           O   tau(  43) = (   0.0000000   0.2500000   1.8306727  )
        44           O   tau(  44) = (   0.2500000   0.0000000   2.4619392  )
        45           O   tau(  45) = (   0.2500000   0.0000000   1.9569260  )
        46           O   tau(  46) = (   0.0000000   0.2500000   1.3256595  )
        47           O   tau(  47) = (   0.2500000   0.2500000   1.6412927  )
        48           O   tau(  48) = (   0.0000000   0.0000000   1.0100264  )
        49           O   tau(  49) = (   0.0000000   0.5000000   0.2525066  )
        50           O   tau(  50) = (   0.2500000   0.7500000   0.8837731  )
        51           O   tau(  51) = (   0.5000000   0.2500000   0.5681398  )
        52           O   tau(  52) = (   0.7500000   0.0000000   1.1994063  )
        53           O   tau(  53) = (   0.2500000   0.5000000   0.6943931  )
        54           O   tau(  54) = (   0.0000000   0.7500000   0.0631266  )
        55           O   tau(  55) = (   0.7500000   0.2500000   0.3787599  )
        56           O   tau(  56) = (   0.5000000   0.0000000   2.2725592  )
        57           O   tau(  57) = (   0.0000000   0.5000000   1.5150394  )
        58           O   tau(  58) = (   0.2500000   0.7500000   2.1463059  )
        59           O   tau(  59) = (   0.5000000   0.2500000   1.8306727  )
        60           O   tau(  60) = (   0.7500000   0.0000000   2.4619392  )
[...]
        82           O   tau(  82) = (   0.7500000   0.7500000   0.8837731  )
        83           O   tau(  83) = (   0.5000000   0.7500000   0.5681398  )
        84           O   tau(  84) = (   0.7500000   0.5000000   1.1994063  )
        85           O   tau(  85) = (   0.7500000   0.5000000   0.6943931  )
        86           O   tau(  86) = (   0.5000000   0.7500000   0.0631266  )
        87           O   tau(  87) = (   0.7500000   0.7500000   0.3787599  )
        88           O   tau(  88) = (   0.5000000   0.5000000   2.2725592  )
        89           O   tau(  89) = (   0.5000000   0.5000000   1.5150394  )
        90           O   tau(  90) = (   0.7500000   0.7500000   2.1463059  )
        91           O   tau(  91) = (   0.5000000   0.7500000   1.8306727  )
        92           O   tau(  92) = (   0.7500000   0.5000000   2.4619392  )
        93           O   tau(  93) = (   0.7500000   0.5000000   1.9569260  )
        94           O   tau(  94) = (   0.5000000   0.7500000   1.3256595  )
        95           O   tau(  95) = (   0.7500000   0.7500000   1.6412927  )
        96           O   tau(  96) = (   0.5000000   0.5000000   1.0100264  )

     number of k points=     6  Gaussian smearing, width (Ry)=  0.0100
                       cart. coord. in units 2pi/alat
        k(    1) = (   0.0000000   0.0000000   0.0000000), wk =   0.0370370
        k(    2) = (   0.0000000   0.0000000   0.1320098), wk =   0.0740741
        k(    3) = (   0.0000000   0.3333333   0.0000000), wk =   0.1481481
        k(    4) = (   0.0000000   0.3333333   0.1320098), wk =   0.2962963
        k(    5) = (   0.3333333   0.3333333   0.0000000), wk =   0.1481481
        k(    6) = (   0.3333333   0.3333333   0.1320098), wk =   0.2962963

     Initial potential from superposition of free atoms

     starting charge  735.99850, renormalised to  768.00000
     Starting wfcs are  576 randomized atomic wfcs

     Self-consistent Calculation

     iteration #  1     ecut=    35.00 Ry     beta= 0.40
     Davidson diagonalization with overlap
     ethr =  1.00E-02,  avg # of iterations =  3.0

     total energy              =   -5778.39474445 Ry
     Harris-Foulkes estimate   =   -5788.84516702 Ry
     estimated scf accuracy    <      23.86894865 Ry

     total magnetization       =    -0.00 Bohr mag/cell
     absolute magnetization    =     9.62 Bohr mag/cell

[...]

     total energy              =   -5786.91375030 Ry
     Harris-Foulkes estimate   =   -5786.91375093 Ry
     estimated scf accuracy    <       0.00000178 Ry

[...]

     iteration # 14     ecut=    35.00 Ry     beta= 0.40
     Davidson diagonalization with overlap
     ethr =  2.32E-10,  avg # of iterations =  3.3

     Magnetic moment per site:
     atom:    1    charge:    8.4016    magn:    0.0000    constr:    0.0000
     atom:    2    charge:    8.4016    magn:    0.0000    constr:    0.0000
     atom:    3    charge:    8.4011    magn:    0.0000    constr:    0.0000
     atom:    4    charge:    8.4011    magn:    0.0000    constr:    0.0000
     atom:    5    charge:    8.4016    magn:    0.0000    constr:    0.0000
     atom:    6    charge:    8.4016    magn:    0.0000    constr:    0.0000
     atom:    7    charge:    8.4011    magn:    0.0000    constr:    0.0000
     atom:    8    charge:    8.4011    magn:    0.0000    constr:    0.0000
     atom:    9    charge:    8.4015    magn:    0.0000    constr:    0.0000
     atom:   10    charge:    8.4016    magn:    0.0000    constr:    0.0000
     atom:   11    charge:    8.4011    magn:    0.0000    constr:    0.0000
     atom:   12    charge:    8.4011    magn:    0.0000    constr:    0.0000
     atom:   13    charge:    8.4011    magn:    0.0000    constr:    0.0000
     atom:   14    charge:    8.4011    magn:    0.0000    constr:    0.0000
     atom:   15    charge:    8.4016    magn:    0.0000    constr:    0.0000
     atom:   16    charge:    8.4015    magn:    0.0000    constr:    0.0000
     atom:   17    charge:    8.4015    magn:    0.0000    constr:    0.0000
     atom:   18    charge:    8.4016    magn:    0.0000    constr:    0.0000
     atom:   19    charge:    8.4011    magn:    0.0000    constr:    0.0000
     atom:   20    charge:    8.4011    magn:    0.0000    constr:    0.0000
     atom:   21    charge:    8.4011    magn:    0.0000    constr:    0.0000
     atom:   22    charge:    8.4011    magn:    0.0000    constr:    0.0000
     atom:   23    charge:    8.4016    magn:    0.0000    constr:    0.0000
     atom:   24    charge:    8.4015    magn:    0.0000    constr:    0.0000
     atom:   25    charge:    8.4015    magn:    0.0000    constr:    0.0000
     atom:   26    charge:    8.4016    magn:    0.0000    constr:    0.0000
     atom:   27    charge:    8.4011    magn:    0.0000    constr:    0.0000
     atom:   28    charge:    8.4011    magn:    0.0000    constr:    0.0000
     atom:   29    charge:    8.4015    magn:    0.0000    constr:    0.0000
     atom:   30    charge:    8.4016    magn:    0.0000    constr:    0.0000
     atom:   31    charge:    8.4011    magn:    0.0000    constr:    0.0000
     atom:   32    charge:    8.4011    magn:    0.0000    constr:    0.0000
     atom:   33    charge:    5.3653    magn:   -0.0000    constr:    0.0000
     atom:   34    charge:    5.3653    magn:   -0.0001    constr:    0.0000
     atom:   35    charge:    5.3648    magn:   -0.0001    constr:    0.0000
     atom:   36    charge:    5.3649    magn:   -0.0000    constr:    0.0000
     atom:   37    charge:    5.3648    magn:   -0.0001    constr:    0.0000
     atom:   38    charge:    5.3649    magn:   -0.0000    constr:    0.0000
     atom:   39    charge:    5.3652    magn:   -0.0001    constr:    0.0000
     atom:   40    charge:    5.3653    magn:   -0.0000    constr:    0.0000
     atom:   41    charge:    5.3652    magn:   -0.0000    constr:    0.0000
     atom:   42    charge:    5.3652    magn:   -0.0001    constr:    0.0000
     atom:   43    charge:    5.3648    magn:   -0.0001    constr:    0.0000
     atom:   44    charge:    5.3649    magn:   -0.0000    constr:    0.0000
     atom:   45    charge:    5.3648    magn:   -0.0001    constr:    0.0000
     atom:   46    charge:    5.3649    magn:   -0.0000    constr:    0.0000
     atom:   47    charge:    5.3653    magn:   -0.0001    constr:    0.0000
     atom:   48    charge:    5.3652    magn:   -0.0000    constr:    0.0000
     atom:   49    charge:    5.3652    magn:   -0.0001    constr:    0.0000
     atom:   50    charge:    5.3653    magn:   -0.0001    constr:    0.0000
     atom:   51    charge:    5.3648    magn:   -0.0001    constr:    0.0000
     atom:   52    charge:    5.3649    magn:   -0.0000    constr:    0.0000
     atom:   53    charge:    5.3648    magn:   -0.0001    constr:    0.0000
     atom:   54    charge:    5.3649    magn:   -0.0000    constr:    0.0000
     atom:   55    charge:    5.3652    magn:   -0.0001    constr:    0.0000
     atom:   56    charge:    5.3652    magn:   -0.0001    constr:    0.0000
     atom:   57    charge:    5.3652    magn:   -0.0001    constr:    0.0000
     atom:   58    charge:    5.3652    magn:   -0.0001    constr:    0.0000
     atom:   59    charge:    5.3648    magn:   -0.0001    constr:    0.0000
     atom:   60    charge:    5.3649    magn:   -0.0000    constr:    0.0000
[...]
     atom:   82    charge:    5.3653    magn:   -0.0001    constr:    0.0000
     atom:   83    charge:    5.3648    magn:   -0.0001    constr:    0.0000
     atom:   84    charge:    5.3649    magn:   -0.0001    constr:    0.0000
     atom:   85    charge:    5.3648    magn:   -0.0001    constr:    0.0000
     atom:   86    charge:    5.3649    magn:   -0.0000    constr:    0.0000
     atom:   87    charge:    5.3652    magn:   -0.0001    constr:    0.0000
     atom:   88    charge:    5.3652    magn:   -0.0001    constr:    0.0000
     atom:   89    charge:    5.3652    magn:   -0.0001    constr:    0.0000
     atom:   90    charge:    5.3652    magn:   -0.0001    constr:    0.0000
     atom:   91    charge:    5.3648    magn:   -0.0001    constr:    0.0000
     atom:   92    charge:    5.3649    magn:   -0.0000    constr:    0.0000
     atom:   93    charge:    5.3648    magn:   -0.0001    constr:    0.0000
     atom:   94    charge:    5.3649    magn:   -0.0001    constr:    0.0000
     atom:   95    charge:    5.3653    magn:   -0.0001    constr:    0.0000
     atom:   96    charge:    5.3652    magn:   -0.0001    constr:    0.0000

     End of self-consistent calculation

 ------ SPIN UP ------------

          k = 0.0000 0.0000 0.0000 ( 25997 PWs)   bands (ev):

   -49.0925 -49.0836 -49.0836 -49.0753 -49.0752 -49.0752 -49.0752 -49.0751
   -49.0751 -49.0751 -49.0750 -49.0624 -49.0619 -49.0582 -49.0582 -49.0580
   -49.0580 -49.0577 -49.0575 -49.0575 -49.0575 -49.0449 -49.0448 -49.0448
   -49.0448 -49.0448 -49.0447 -49.0447 -49.0446 -49.0406 -49.0405 -49.0316
   -25.6277 -25.5853 -25.5853 -25.5853 -25.5852 -25.5794 -25.5793 -25.5793
   -25.5793 -25.5670 -25.5669 -25.5551 -25.5550 -25.5549 -25.5548 -25.5546
   -25.5546 -25.5544 -25.5544 -25.4705 -25.4705 -25.4705 -25.4704 -25.4538
   -25.4538 -25.4538 -25.4537 -25.4206 -25.4205 -25.3712 -25.3712 -25.3710
   -25.3710 -25.3706 -25.3705 -25.3703 -25.3703 -25.3539 -25.3539 -25.3436
   -25.3436 -25.3435 -25.3435 -25.3390 -25.3390 -25.3389 -25.3389 -25.3388
   -25.3388 -25.3388 -25.3388 -25.3303 -25.3303 -25.3173 -25.3173 -25.3172
   -25.3172 -25.2978 -25.2978 -25.2977 -25.2977 -25.2669 -25.2669 -25.2577
   -25.2577 -25.2433 -25.2433 -25.2433 -25.2432 -25.2424 -25.2424 -25.2424
   -25.2423 -25.2419 -25.2418 -25.2418 -25.2418 -25.2330 -25.2330 -25.2207
   -25.2206 -25.2206 -25.2206 -25.2202 -25.2201 -25.2200 -25.2200 -25.2200
   -25.2200 -25.2198 -25.2198 -25.2107 -25.2106 -25.2106 -25.2106 -25.2040
   -10.4626 -10.2775 -10.2773  -9.9132  -9.9132  -9.9130  -9.9130  -9.9120
    -9.9119  -9.9118  -9.9118  -9.8335  -9.8334  -9.3991  -9.3990  -9.2658
    -9.2241  -9.2073  -9.2071  -9.1443  -9.1443  -9.1442  -9.1441  -9.1427
    -9.1427  -9.1426  -9.1426  -9.0922  -9.0921  -9.0921  -9.0921  -9.0849
    -9.0849  -9.0848  -9.0848  -9.0406  -9.0404  -8.8628  -8.8628  -8.8628
    -8.8627  -8.8502  -8.8502  -8.8501  -8.8501  -8.8470  -8.8470  -8.8468
    -8.8468  -8.8336  -8.8335  -8.8286  -8.8285  -8.8284  -8.8283  -8.7346
    -8.6803  -8.6803  -8.6803  -8.6802  -8.6787  -8.6787  -8.6787  -8.6786
     2.7879   2.7879   2.7879   2.7879   2.8015   2.8015   2.8015   2.8015
     2.8550   2.8550   2.8555   2.8556   2.9877   3.0031   3.0031   3.0035
     3.0036   3.0176   3.0176   3.0492   3.0492   3.0494   3.0494   3.0511
     3.0511   3.0515   3.0517   3.0813   3.0813   3.1045   3.1046   3.1047
     3.1047   3.1059   3.1060   3.1061   3.1061   3.1151   3.1151   3.1152
     3.1152   3.1167   3.1167   3.1169   3.1169   3.1490   3.1490   3.1493
     3.1496   3.1906   3.1906   3.3602   3.3603   3.3604   3.3604   3.4018
     3.4018   3.4019   3.4020   3.4166   3.4173   3.5763   3.5763   3.5766
     3.5767   3.6056   3.6058   3.6117   3.6117   3.6121   3.6121   3.9147
     3.9147   3.9147   3.9147   3.9485   4.1877   4.1877   4.1877   4.1877
     4.3064   4.3064   4.3071   4.3072   4.5592   4.5593   4.5601   4.5601
     4.5656   4.5656   4.5656   4.5656   4.9749   5.0127   5.0128   5.0130
     5.0130   5.0132   5.0132   5.0137   5.0137   5.0492   5.0493   5.0494
     5.0494   5.1010   5.1010   5.1010   5.1010   5.1249   5.1249   5.1250
     5.1251   5.1857   5.1857   5.1859   5.1859   5.2645   5.2645   5.2647
     5.2647   5.3605   5.3605   5.3606   5.3606   5.3617   5.3617   5.3626
     5.3627   5.4976   5.4978   5.8286   5.8296   5.8587   5.8587   5.8599
     5.8599   6.0173   6.0173   6.0174   6.0175   6.0883   6.0883   6.1053
     6.1054   6.1358   6.1358   6.1358   6.1359   6.2563   6.2563   6.2564
     6.2564   6.2979   6.2980   6.2982   6.2982   6.3541   6.3541   6.3542
     6.3543   6.4109   6.5537   6.5537   6.5537   6.5538   6.5629   6.5629
     6.5691   6.5691   6.5693   6.5693   6.5709   6.5710   6.5711   6.5712
     6.6516   6.6516   6.6519   6.6523   6.7617   6.7617   6.9413   6.9414
     6.9420   6.9423   7.0313   7.0314   7.0315   7.0316   7.1576   7.1576
     9.4059   9.5080   9.5080   9.7630   9.7634  10.0299  10.0299  10.1432
    10.4372  10.4372  10.4372  10.4372  10.5059  10.5059  10.5060  10.5060
    10.6247  10.6248  10.6248  10.6248  10.6518  10.6518  10.6520  10.6521
    10.6565  10.6565  10.6565  10.6566  10.7768  10.7768  10.7769  10.7769
    10.8325  10.8325  10.8326  10.8326  10.8600  10.8600  10.8600  10.8601
    10.8952  10.8952  10.8952  10.8952  10.9025  10.9025  10.9025  10.9026
    10.9634  10.9634  10.9634  10.9635  11.0162  11.0162  11.0164  11.0164
    11.1160  11.1160  11.2304  11.2304  11.2305  11.2305  11.5093  11.5093
    11.6012  11.6012  11.6173  11.6173  11.6173  11.6173  11.7216  11.7216
    11.7216  11.7216  11.8911  11.8916  11.8946

[...]

 ------ SPIN DOWN ----------

[...]

          k = 0.3333 0.3333 0.1320 ( 25953 PWs)   bands (ev):

   -49.0863 -49.0837 -49.0799 -49.0798 -49.0780 -49.0779 -49.0741 -49.0734
   -49.0719 -49.0713 -49.0712 -49.0677 -49.0674 -49.0674 -49.0663 -49.0627
   -49.0548 -49.0541 -49.0522 -49.0522 -49.0511 -49.0484 -49.0483 -49.0477
   -49.0455 -49.0440 -49.0416 -49.0415 -49.0397 -49.0396 -49.0380 -49.0354
   -25.6144 -25.6048 -25.6048 -25.5976 -25.5956 -25.5930 -25.5929 -25.5869
   -25.5580 -25.5551 -25.5550 -25.5425 -25.5380 -25.5380 -25.5366 -25.5151
   -25.5034 -25.5001 -25.4851 -25.4788 -25.4714 -25.4713 -25.4653 -25.4652
   -25.4463 -25.4462 -25.4384 -25.4383 -25.4383 -25.4187 -25.3932 -25.3856
   -25.3715 -25.3711 -25.3686 -25.3661 -25.3582 -25.3582 -25.3562 -25.3553
   -25.3552 -25.3546 -25.3546 -25.3531 -25.3519 -25.3518 -25.3499 -25.3454
   -25.3452 -25.3357 -25.3326 -25.3308 -25.3247 -25.3246 -25.3210 -25.3106
   -25.3105 -25.3066 -25.3066 -25.3030 -25.3029 -25.2961 -25.2805 -25.2775
   -25.2549 -25.2498 -25.2498 -25.2497 -25.2461 -25.2461 -25.2448 -25.2409
   -25.2381 -25.2380 -25.2379 -25.2361 -25.2360 -25.2351 -25.2342 -25.2334
   -25.2316 -25.2284 -25.2250 -25.2250 -25.2229 -25.2229 -25.2223 -25.2173
   -25.2098 -25.2048 -25.2048 -25.2019 -25.1958 -25.1956 -25.1953 -25.1953
   -10.2048 -10.1487  -9.9498  -9.9498  -9.9440  -9.9100  -9.9100  -9.8099
    -9.7763  -9.7763  -9.7092  -9.7092  -9.6476  -9.6130  -9.5258  -9.4881
    -9.4076  -9.3958  -9.2710  -9.2710  -9.2394  -9.2101  -9.2101  -9.2040
    -9.1632  -9.1595  -9.1308  -9.1216  -9.0983  -9.0983  -9.0723  -9.0723
    -9.0575  -9.0461  -9.0109  -9.0094  -8.9873  -8.9873  -8.9865  -8.9865
    -8.9565  -8.9565  -8.9334  -8.9334  -8.8925  -8.8830  -8.8689  -8.8311
    -8.8287  -8.8027  -8.8014  -8.8013  -8.7664  -8.7664  -8.7391  -8.7294
    -8.7050  -8.6998  -8.6991  -8.6991  -8.6790  -8.6790  -8.6474  -8.6304
     2.4379   2.4487   2.4566   2.4566   2.4672   2.4683   2.4684   2.4769
     2.5059   2.5059   2.5222   2.5222   2.5303   2.5745   2.6641   2.6666
     2.6693   2.6713   2.6912   2.7096   2.7594   2.7626   2.7626   2.7774
     2.7774   2.7933   2.8116   2.8116   2.8260   2.8260   2.8369   2.8483
     3.0415   3.0580   3.0664   3.0665   3.1395   3.1926   3.1927   3.2033
     3.4248   3.5143   3.5144   3.5304   3.5304   3.5435   3.6319   3.6378
     3.6546   3.6826   3.6919   3.7103   3.7103   3.7655   3.7766   3.7766
     3.8367   3.8541   3.8640   3.8641   3.8776   3.8777   3.8833   3.9317
     3.9807   4.0399   4.1284   4.2040   4.2822   4.2822   4.3120   4.3174
     4.3174   4.3331   4.3874   4.3956   4.3956   4.4162   4.4349   4.4349
     4.4361   4.4361   4.4457   4.4457   4.4713   4.4968   4.5057   4.5246
     4.5492   4.5492   4.5552   4.5643   4.5710   4.5785   4.6055   4.6120
     4.6146   4.6146   4.6207   4.6226   4.6620   4.6620   4.8190   4.8356
     4.8356   4.9774   5.0350   5.0350   5.0384   5.0384   5.2260   5.2294
     5.2406   5.2406   5.2682   5.2881   5.4388   5.4388   5.4641   5.4781
     5.5290   5.5290   5.5398   5.5398   5.6060   5.6297   5.6380   5.6415
     5.6447   5.7110   5.7243   5.7254   5.7254   5.7854   5.7854   5.7889
     5.9301   5.9422   5.9423   5.9450   5.9714   5.9853   5.9980   5.9980
     6.0066   6.0066   6.0146   6.0146   6.0350   6.0851   6.0851   6.1228
     6.1430   6.1717   6.1717   6.2186   6.2776   6.3495   6.3584   6.3621
     6.4448   6.4515   6.4591   6.4613   6.4614   6.4700   6.4700   6.5016
     6.5411   6.5559   6.5587   6.5830   6.5830   6.6014   6.6014   6.6396
     6.6714   6.6936   6.6936   6.7221   6.7577   6.7577   6.7853   6.7853
     6.7875   6.7875   6.8169   6.8750   6.8963   6.9092   6.9134   6.9273
    10.2232  10.2292  10.2354  10.2472  10.2495  10.2614  10.2663  10.2669
    10.2831  10.3003  10.3004  10.3068  10.3084  10.3084  10.3629  10.3629
    10.3644  10.3918  10.3919  10.4014  10.4669  10.4670  10.4845  10.4846
    10.5185  10.5502  10.5503  10.5597  10.5598  10.5842  10.6040  10.6272
    10.7418  10.7456  10.7456  10.7539  10.7562  10.7625  10.7625  10.7668
    10.7677  10.7732  10.7733  10.7870  10.7870  10.8071  10.8343  10.8366
    10.9166  10.9459  10.9627  10.9840  11.0033  11.0033  11.0468  11.0593
    11.0629  11.0629  11.0956  11.1125  11.1125  11.1126  11.1446  11.1446
    11.2396  11.2396  11.2523  11.2523  11.2660  11.2904  11.2905  11.2984
    11.3108  11.3120  11.3120  11.3132  11.3195

     the Fermi energy is     8.3625 ev

!    total energy              =   -5786.91375057 Ry
     Harris-Foulkes estimate   =   -5786.91375091 Ry
     estimated scf accuracy    <       0.00000058 Ry

     The total energy is the sum of the following terms:

     one-electron contribution =   -2683.43582274 Ry
     hartree contribution      =    1666.52796022 Ry
     xc contribution           =    -915.72960366 Ry
     ewald contribution        =   -3854.27628439 Ry
     smearing contrib. (-TS)   =      -0.00000000 Ry

     total magnetization       =     0.00 Bohr mag/cell
     absolute magnetization    =     0.01 Bohr mag/cell

     convergence has been achieved in  14 iterations

     Writing output data file ./out/espresso.save/

     General routines

     Parallel routines

   This run was terminated on:  21: 4:48   1Jun2021

   JOB DONE.